p cnf 200 1110
-101 -8 0
-101 81 0
-101 89 0
-101 67 0
-101 48 0
-101 -64 0
-101 1 0
-101 -34 0
-101 -35 0
-101 23 0
101 8 -81 -89 -67 -48 64 -1 34 35 -23 0
-102 -31 0
-102 -57 0
-102 25 0
-102 -63 0
-102 -35 0
-102 -24 0
-102 -79 0
-102 12 0
-102 92 0
-102 -33 0
102 31 57 -25 63 35 24 79 -12 -92 33 0
-103 -69 0
-103 80 0
-103 58 0
-103 -94 0
-103 100 0
-103 -23 0
-103 -11 0
-103 -62 0
-103 46 0
-103 98 0
103 69 -80 -58 94 -100 23 11 62 -46 -98 0
-104 -56 0
-104 -80 0
-104 -26 0
-104 37 0
-104 18 0
-104 -57 0
-104 55 0
-104 8 0
-104 -87 0
-104 -40 0
104 56 80 26 -37 -18 57 -55 -8 87 40 0
-105 98 0
-105 7 0
-105 -32 0
-105 41 0
-105 46 0
-105 -83 0
-105 -86 0
-105 44 0
-105 53 0
-105 93 0
105 -98 -7 32 -41 -46 83 86 -44 -53 -93 0
-106 66 0
-106 -29 0
-106 -6 0
-106 -30 0
-106 -35 0
-106 -75 0
-106 87 0
-106 -7 0
-106 53 0
-106 91 0
106 -66 29 6 30 35 75 -87 7 -53 -91 0
-107 93 0
-107 12 0
-107 81 0
-107 -76 0
-107 24 0
-107 -79 0
-107 -89 0
-107 -17 0
-107 62 0
-107 75 0
107 -93 -12 -81 76 -24 79 89 17 -62 -75 0
-108 -6 0
-108 96 0
-108 -61 0
-108 -83 0
-108 62 0
-108 -79 0
-108 -51 0
-108 -74 0
-108 41 0
-108 95 0
108 6 -96 61 83 -62 79 51 74 -41 -95 0
-109 -43 0
-109 3 0
-109 90 0
-109 -7 0
-109 -39 0
-109 100 0
-109 5 0
-109 -51 0
-109 49 0
-109 68 0
109 43 -3 -90 7 39 -100 -5 51 -49 -68 0
-110 88 0
-110 -59 0
-110 68 0
-110 -62 0
-110 91 0
-110 22 0
-110 18 0
-110 -25 0
-110 -78 0
-110 49 0
110 -88 59 -68 62 -91 -22 -18 25 78 -49 0
101 102 103 104 105 106 107 108 109 110 0
-111 59 0
-111 29 0
-111 39 0
-111 70 0
-111 -95 0
-111 -55 0
-111 -99 0
-111 92 0
-111 -47 0
-111 23 0
111 -59 -29 -39 -70 95 55 99 -92 47 -23 0
-112 90 0
-112 -58 0
-112 -14 0
-112 -99 0
-112 62 0
-112 -41 0
-112 -56 0
-112 71 0
-112 -23 0
-112 87 0
112 -90 58 14 99 -62 41 56 -71 23 -87 0
-113 -2 0
-113 21 0
-113 -28 0
-113 53 0
-113 -25 0
-113 -36 0
-113 6 0
-113 -55 0
-113 -60 0
-113 -35 0
113 2 -21 28 -53 25 36 -6 55 60 35 0
-114 -97 0
-114 -57 0
-114 4 0
-114 -48 0
-114 -52 0
-114 26 0
-114 21 0
-114 12 0
-114 30 0
-114 -90 0
114 97 57 -4 48 52 -26 -21 -12 -30 90 0
-115 59 0
-115 7 0
-115 28 0
-115 -81 0
-115 83 0
-115 14 0
-115 40 0
-115 15 0
-115 53 0
-115 -66 0
115 -59 -7 -28 81 -83 -14 -40 -15 -53 66 0
-116 -92 0
-116 4 0
-116 -38 0
-116 79 0
-116 50 0
-116 47 0
-116 -69 0
-116 72 0
-116 12 0
-116 -88 0
116 92 -4 38 -79 -50 -47 69 -72 -12 88 0
-117 -19 0
-117 -91 0
-117 18 0
-117 -99 0
-117 17 0
-117 -96 0
-117 -85 0
-117 -60 0
-117 98 0
-117 88 0
117 19 91 -18 99 -17 96 85 60 -98 -88 0
-118 -68 0
-118 3 0
-118 55 0
-118 -95 0
-118 -63 0
-118 23 0
-118 -20 0
-118 -72 0
-118 -59 0
-118 45 0
118 68 -3 -55 95 63 -23 20 72 59 -45 0
-119 22 0
-119 -18 0
-119 -83 0
-119 99 0
-119 -73 0
-119 26 0
-119 -90 0
-119 35 0
-119 65 0
-119 -5 0
119 -22 18 83 -99 73 -26 90 -35 -65 5 0
-120 40 0
-120 -27 0
-120 34 0
-120 -97 0
-120 88 0
-120 -76 0
-120 61 0
-120 28 0
-120 -25 0
-120 65 0
120 -40 27 -34 97 -88 76 -61 -28 25 -65 0
111 112 113 114 115 116 117 118 119 120 0
-121 -83 0
-121 76 0
-121 36 0
-121 61 0
-121 -1 0
-121 6 0
-121 -14 0
-121 -21 0
-121 -29 0
-121 71 0
121 83 -76 -36 -61 1 -6 14 21 29 -71 0
-122 -81 0
-122 20 0
-122 5 0
-122 85 0
-122 -63 0
-122 -14 0
-122 84 0
-122 19 0
-122 96 0
-122 94 0
122 81 -20 -5 -85 63 14 -84 -19 -96 -94 0
-123 -2 0
-123 -12 0
-123 -26 0
-123 78 0
-123 52 0
-123 -50 0
-123 -71 0
-123 -99 0
-123 -18 0
-123 97 0
123 2 12 26 -78 -52 50 71 99 18 -97 0
-124 -46 0
-124 -31 0
-124 -97 0
-124 79 0
-124 -3 0
-124 96 0
-124 56 0
-124 64 0
-124 90 0
-124 -88 0
124 46 31 97 -79 3 -96 -56 -64 -90 88 0
-125 -4 0
-125 -85 0
-125 24 0
-125 45 0
-125 -50 0
-125 -3 0
-125 -15 0
-125 55 0
-125 38 0
-125 -75 0
125 4 85 -24 -45 50 3 15 -55 -38 75 0
-126 -36 0
-126 23 0
-126 -43 0
-126 72 0
-126 13 0
-126 52 0
-126 -55 0
-126 -1 0
-126 -58 0
-126 89 0
126 36 -23 43 -72 -13 -52 55 1 58 -89 0
-127 65 0
-127 34 0
-127 -73 0
-127 43 0
-127 18 0
-127 76 0
-127 84 0
-127 -82 0
-127 -95 0
-127 71 0
127 -65 -34 73 -43 -18 -76 -84 82 95 -71 0
-128 35 0
-128 9 0
-128 31 0
-128 -33 0
-128 44 0
-128 -84 0
-128 -59 0
-128 -46 0
-128 -93 0
-128 -7 0
128 -35 -9 -31 33 -44 84 59 46 93 7 0
-129 59 0
-129 -95 0
-129 66 0
-129 -38 0
-129 87 0
-129 -85 0
-129 -57 0
-129 40 0
-129 -25 0
-129 -13 0
129 -59 95 -66 38 -87 85 57 -40 25 13 0
-130 43 0
-130 62 0
-130 -35 0
-130 -87 0
-130 6 0
-130 -63 0
-130 84 0
-130 -37 0
-130 34 0
-130 -86 0
130 -43 -62 35 87 -6 63 -84 37 -34 86 0
121 122 123 124 125 126 127 128 129 130 0
-131 -59 0
-131 34 0
-131 -70 0
-131 -10 0
-131 -90 0
-131 -31 0
-131 -51 0
-131 -46 0
-131 -83 0
-131 61 0
131 59 -34 70 10 90 31 51 46 83 -61 0
-132 5 0
-132 52 0
-132 95 0
-132 48 0
-132 -1 0
-132 -2 0
-132 -23 0
-132 36 0
-132 81 0
-132 -38 0
132 -5 -52 -95 -48 1 2 23 -36 -81 38 0
-133 -73 0
-133 58 0
-133 -93 0
-133 25 0
-133 -24 0
-133 50 0
-133 89 0
-133 -98 0
-133 55 0
-133 -31 0
133 73 -58 93 -25 24 -50 -89 98 -55 31 0
-134 -91 0
-134 -33 0
-134 -42 0
-134 -23 0
-134 -74 0
-134 -34 0
-134 -38 0
-134 -30 0
-134 99 0
-134 49 0
134 91 33 42 23 74 34 38 30 -99 -49 0
-135 7 0
-135 -16 0
-135 93 0
-135 -54 0
-135 -29 0
-135 76 0
-135 -82 0
-135 68 0
-135 -17 0
-135 1 0
135 -7 16 -93 54 29 -76 82 -68 17 -1 0
-136 6 0
-136 -23 0
-136 7 0
-136 8 0
-136 -73 0
-136 84 0
-136 80 0
-136 19 0
-136 17 0
-136 41 0
136 -6 23 -7 -8 73 -84 -80 -19 -17 -41 0
-137 3 0
-137 -29 0
-137 43 0
-137 71 0
-137 13 0
-137 4 0
-137 -88 0
-137 49 0
-137 58 0
-137 -5 0
137 -3 29 -43 -71 -13 -4 88 -49 -58 5 0
-138 42 0
-138 -96 0
-138 -11 0
-138 65 0
-138 -26 0
-138 -30 0
-138 -87 0
-138 -91 0
-138 17 0
-138 -13 0
138 -42 96 11 -65 26 30 87 91 -17 13 0
-139 44 0
-139 62 0
-139 45 0
-139 31 0
-139 -49 0
-139 -58 0
-139 22 0
-139 -21 0
-139 27 0
-139 -67 0
139 -44 -62 -45 -31 49 58 -22 21 -27 67 0
-140 75 0
-140 -34 0
-140 82 0
-140 -43 0
-140 -4 0
-140 -27 0
-140 35 0
-140 -42 0
-140 -48 0
-140 -14 0
140 -75 34 -82 43 4 27 -35 42 48 14 0
131 132 133 134 135 136 137 138 139 140 0
-141 65 0
-141 -8 0
-141 85 0
-141 -10 0
-141 87 0
-141 86 0
-141 94 0
-141 -83 0
-141 -20 0
-141 -92 0
141 -65 8 -85 10 -87 -86 -94 83 20 92 0
-142 83 0
-142 -60 0
-142 28 0
-142 76 0
-142 67 0
-142 54 0
-142 68 0
-142 39 0
-142 -82 0
-142 55 0
142 -83 60 -28 -76 -67 -54 -68 -39 82 -55 0
-143 87 0
-143 28 0
-143 -100 0
-143 49 0
-143 71 0
-143 -42 0
-143 -31 0
-143 18 0
-143 23 0
-143 -84 0
143 -87 -28 100 -49 -71 42 31 -18 -23 84 0
-144 64 0
-144 32 0
-144 -36 0
-144 33 0
-144 44 0
-144 92 0
-144 70 0
-144 -4 0
-144 -24 0
-144 -23 0
144 -64 -32 36 -33 -44 -92 -70 4 24 23 0
-145 -58 0
-145 -82 0
-145 -34 0
-145 65 0
-145 47 0
-145 -12 0
-145 -43 0
-145 -59 0
-145 -67 0
-145 -40 0
145 58 82 34 -65 -47 12 43 59 67 40 0
-146 69 0
-146 70 0
-146 92 0
-146 -8 0
-146 -29 0
-146 5 0
-146 -25 0
-146 28 0
-146 48 0
-146 13 0
146 -69 -70 -92 8 29 -5 25 -28 -48 -13 0
-147 -100 0
-147 -99 0
-147 -42 0
-147 -24 0
-147 -71 0
-147 2 0
-147 -95 0
-147 48 0
-147 -1 0
-147 -94 0
147 100 99 42 24 71 -2 95 -48 1 94 0
-148 63 0
-148 62 0
-148 -96 0
-148 57 0
-148 83 0
-148 -65 0
-148 -70 0
-148 -1 0
-148 49 0
-148 26 0
148 -63 -62 96 -57 -83 65 70 1 -49 -26 0
-149 25 0
-149 13 0
-149 -62 0
-149 -4 0
-149 -85 0
-149 -14 0
-149 99 0
-149 -87 0
-149 31 0
-149 -67 0
149 -25 -13 62 4 85 14 -99 87 -31 67 0
-150 45 0
-150 -34 0
-150 93 0
-150 -2 0
-150 -75 0
-150 78 0
-150 -90 0
-150 -65 0
-150 -77 0
-150 47 0
150 -45 34 -93 2 75 -78 90 65 77 -47 0
141 142 143 144 145 146 147 148 149 150 0
-151 17 0
-151 -62 0
-151 21 0
-151 -46 0
-151 68 0
-151 24 0
-151 -49 0
-151 -13 0
-151 86 0
-151 3 0
151 -17 62 -21 46 -68 -24 49 13 -86 -3 0
-152 -7 0
-152 -35 0
-152 -25 0
-152 -74 0
-152 26 0
-152 88 0
-152 21 0
-152 -59 0
-152 41 0
-152 49 0
152 7 35 25 74 -26 -88 -21 59 -41 -49 0
-153 -90 0
-153 91 0
-153 -48 0
-153 62 0
-153 24 0
-153 -22 0
-153 -81 0
-153 77 0
-153 -36 0
-153 -93 0
153 90 -91 48 -62 -24 22 81 -77 36 93 0
-154 53 0
-154 15 0
-154 87 0
-154 29 0
-154 -94 0
-154 -31 0
-154 7 0
-154 -55 0
-154 44 0
-154 -54 0
154 -53 -15 -87 -29 94 31 -7 55 -44 54 0
-155 66 0
-155 -47 0
-155 -65 0
-155 -3 0
-155 80 0
-155 -23 0
-155 -15 0
-155 -87 0
-155 54 0
-155 -67 0
155 -66 47 65 3 -80 23 15 87 -54 67 0
-156 47 0
-156 55 0
-156 -59 0
-156 92 0
-156 -93 0
-156 -70 0
-156 40 0
-156 -67 0
-156 8 0
-156 50 0
156 -47 -55 59 -92 93 70 -40 67 -8 -50 0
-157 -81 0
-157 60 0
-157 8 0
-157 32 0
-157 71 0
-157 -25 0
-157 -4 0
-157 79 0
-157 -14 0
-157 10 0
157 81 -60 -8 -32 -71 25 4 -79 14 -10 0
-158 -52 0
-158 14 0
-158 -66 0
-158 -84 0
-158 -29 0
-158 -30 0
-158 -47 0
-158 92 0
-158 -89 0
-158 -91 0
158 52 -14 66 84 29 30 47 -92 89 91 0
-159 7 0
-159 35 0
-159 -78 0
-159 -32 0
-159 72 0
-159 -25 0
-159 -76 0
-159 58 0
-159 80 0
-159 8 0
159 -7 -35 78 32 -72 25 76 -58 -80 -8 0
-160 -33 0
-160 63 0
-160 -42 0
-160 -23 0
-160 62 0
-160 88 0
-160 64 0
-160 93 0
-160 -84 0
-160 -9 0
160 33 -63 42 23 -62 -88 -64 -93 84 9 0
151 152 153 154 155 156 157 158 159 160 0
-161 -87 0
-161 -23 0
-161 20 0
-161 -52 0
-161 -73 0
-161 -88 0
-161 -18 0
-161 -7 0
-161 -63 0
-161 84 0
161 87 23 -20 52 73 88 18 7 63 -84 0
-162 88 0
-162 -34 0
-162 39 0
-162 -60 0
-162 -45 0
-162 -95 0
-162 -20 0
-162 31 0
-162 92 0
-162 -52 0
162 -88 34 -39 60 45 95 20 -31 -92 52 0
-163 -100 0
-163 -16 0
-163 40 0
-163 98 0
-163 -54 0
-163 -57 0
-163 -97 0
-163 -20 0
-163 -26 0
-163 -30 0
163 100 16 -40 -98 54 57 97 20 26 30 0
-164 70 0
-164 -11 0
-164 -54 0
-164 -14 0
-164 39 0
-164 -29 0
-164 -13 0
-164 -15 0
-164 -27 0
-164 88 0
164 -70 11 54 14 -39 29 13 15 27 -88 0
-165 11 0
-165 -80 0
-165 100 0
-165 -74 0
-165 62 0
-165 -3 0
-165 -43 0
-165 32 0
-165 -12 0
-165 -41 0
165 -11 80 -100 74 -62 3 43 -32 12 41 0
-166 -2 0
-166 16 0
-166 28 0
-166 -86 0
-166 14 0
-166 93 0
-166 -36 0
-166 27 0
-166 88 0
-166 -43 0
166 2 -16 -28 86 -14 -93 36 -27 -88 43 0
-167 -1 0
-167 98 0
-167 -17 0
-167 -97 0
-167 8 0
-167 -2 0
-167 37 0
-167 -5 0
-167 -88 0
-167 -58 0
167 1 -98 17 97 -8 2 -37 5 88 58 0
-168 -5 0
-168 40 0
-168 -83 0
-168 88 0
-168 54 0
-168 -64 0
-168 -76 0
-168 -59 0
-168 51 0
-168 -43 0
168 5 -40 83 -88 -54 64 76 59 -51 43 0
-169 -4 0
-169 -19 0
-169 -55 0
-169 75 0
-169 -15 0
-169 6 0
-169 -37 0
-169 -2 0
-169 85 0
-169 38 0
169 4 19 55 -75 15 -6 37 2 -85 -38 0
-170 61 0
-170 65 0
-170 95 0
-170 -63 0
-170 -38 0
-170 6 0
-170 13 0
-170 -59 0
-170 100 0
-170 55 0
170 -61 -65 -95 63 38 -6 -13 59 -100 -55 0
161 162 163 164 165 166 167 168 169 170 0
-171 26 0
-171 -91 0
-171 -23 0
-171 -40 0
-171 -45 0
-171 64 0
-171 100 0
-171 -54 0
-171 67 0
-171 -29 0
171 -26 91 23 40 45 -64 -100 54 -67 29 0
-172 -46 0
-172 -83 0
-172 -34 0
-172 -60 0
-172 -36 0
-172 47 0
-172 42 0
-172 52 0
-172 -61 0
-172 -2 0
172 46 83 34 60 36 -47 -42 -52 61 2 0
-173 -46 0
-173 20 0
-173 72 0
-173 -71 0
-173 -75 0
-173 -2 0
-173 -1 0
-173 51 0
-173 35 0
-173 30 0
173 46 -20 -72 71 75 2 1 -51 -35 -30 0
-174 87 0
-174 4 0
-174 52 0
-174 -94 0
-174 -49 0
-174 72 0
-174 -27 0
-174 89 0
-174 -98 0
-174 77 0
174 -87 -4 -52 94 49 -72 27 -89 98 -77 0
-175 56 0
-175 51 0
-175 -59 0
-175 8 0
-175 29 0
-175 -68 0
-175 -26 0
-175 -36 0
-175 -85 0
-175 -66 0
175 -56 -51 59 -8 -29 68 26 36 85 66 0
-176 -66 0
-176 10 0
-176 88 0
-176 -57 0
-176 -39 0
-176 -68 0
-176 -50 0
-176 -22 0
-176 21 0
-176 19 0
176 66 -10 -88 57 39 68 50 22 -21 -19 0
-177 -62 0
-177 15 0
-177 -65 0
-177 19 0
-177 -28 0
-177 50 0
-177 -1 0
-177 -31 0
-177 -33 0
-177 -63 0
177 62 -15 65 -19 28 -50 1 31 33 63 0
-178 -18 0
-178 15 0
-178 53 0
-178 -97 0
-178 5 0
-178 -72 0
-178 24 0
-178 41 0
-178 -17 0
-178 -20 0
178 18 -15 -53 97 -5 72 -24 -41 17 20 0
-179 43 0
-179 40 0
-179 53 0
-179 -80 0
-179 -69 0
-179 -11 0
-179 -72 0
-179 83 0
-179 -61 0
-179 6 0
179 -43 -40 -53 80 69 11 72 -83 61 -6 0
-180 26 0
-180 90 0
-180 -36 0
-180 -88 0
-180 89 0
-180 92 0
-180 -13 0
-180 -67 0
-180 78 0
-180 81 0
180 -26 -90 36 88 -89 -92 13 67 -78 -81 0
171 172 173 174 175 176 177 178 179 180 0
-181 78 0
-181 47 0
-181 -84 0
-181 13 0
-181 -4 0
-181 -36 0
-181 95 0
-181 16 0
-181 71 0
-181 58 0
181 -78 -47 84 -13 4 36 -95 -16 -71 -58 0
-182 -32 0
-182 -59 0
-182 63 0
-182 -99 0
-182 89 0
-182 68 0
-182 -19 0
-182 -1 0
-182 78 0
-182 -18 0
182 32 59 -63 99 -89 -68 19 1 -78 18 0
-183 90 0
-183 -39 0
-183 69 0
-183 9 0
-183 -22 0
-183 5 0
-183 -71 0
-183 -92 0
-183 20 0
-183 -52 0
183 -90 39 -69 -9 22 -5 71 92 -20 52 0
-184 21 0
-184 82 0
-184 100 0
-184 56 0
-184 -41 0
-184 -6 0
-184 59 0
-184 8 0
-184 -77 0
-184 36 0
184 -21 -82 -100 -56 41 6 -59 -8 77 -36 0
-185 29 0
-185 -58 0
-185 -36 0
-185 -72 0
-185 -79 0
-185 97 0
-185 -70 0
-185 2 0
-185 44 0
-185 81 0
185 -29 58 36 72 79 -97 70 -2 -44 -81 0
-186 -42 0
-186 29 0
-186 33 0
-186 -10 0
-186 75 0
-186 6 0
-186 46 0
-186 98 0
-186 -65 0
-186 -21 0
186 42 -29 -33 10 -75 -6 -46 -98 65 21 0
-187 -16 0
-187 34 0
-187 63 0
-187 -100 0
-187 98 0
-187 -38 0
-187 -60 0
-187 73 0
-187 -66 0
-187 67 0
187 16 -34 -63 100 -98 38 60 -73 66 -67 0
-188 36 0
-188 70 0
-188 -11 0
-188 26 0
-188 -18 0
-188 8 0
-188 66 0
-188 -28 0
-188 -64 0
-188 53 0
188 -36 -70 11 -26 18 -8 -66 28 64 -53 0
-189 55 0
-189 29 0
-189 -64 0
-189 -44 0
-189 -35 0
-189 83 0
-189 -87 0
-189 38 0
-189 97 0
-189 -65 0
189 -55 -29 64 44 35 -83 87 -38 -97 65 0
-190 70 0
-190 60 0
-190 23 0
-190 -82 0
-190 50 0
-190 29 0
-190 80 0
-190 -21 0
-190 -41 0
-190 -31 0
190 -70 -60 -23 82 -50 -29 -80 21 41 31 0
181 182 183 184 185 186 187 188 189 190 0
-191 13 0
-191 87 0
-191 32 0
-191 -21 0
-191 76 0
-191 -91 0
-191 -30 0
-191 -70 0
-191 -62 0
-191 77 0
191 -13 -87 -32 21 -76 91 30 70 62 -77 0
-192 -49 0
-192 -16 0
-192 -93 0
-192 -86 0
-192 67 0
-192 -26 0
-192 -47 0
-192 42 0
-192 69 0
-192 53 0
192 49 16 93 86 -67 26 47 -42 -69 -53 0
-193 -95 0
-193 -79 0
-193 84 0
-193 -55 0
-193 31 0
-193 -78 0
-193 53 0
-193 91 0
-193 33 0
-193 -83 0
193 95 79 -84 55 -31 78 -53 -91 -33 83 0
-194 38 0
-194 -89 0
-194 -56 0
-194 18 0
-194 -39 0
-194 100 0
-194 54 0
-194 -2 0
-194 -88 0
-194 -26 0
194 -38 89 56 -18 39 -100 -54 2 88 26 0
-195 -89 0
-195 -94 0
-195 -71 0
-195 20 0
-195 12 0
-195 -72 0
-195 36 0
-195 76 0
-195 -97 0
-195 75 0
195 89 94 71 -20 -12 72 -36 -76 97 -75 0
-196 23 0
-196 -47 0
-196 45 0
-196 43 0
-196 2 0
-196 97 0
-196 89 0
-196 -85 0
-196 -50 0
-196 34 0
196 -23 47 -45 -43 -2 -97 -89 85 50 -34 0
-197 -72 0
-197 65 0
-197 -88 0
-197 -33 0
-197 -20 0
-197 -22 0
-197 17 0
-197 -90 0
-197 68 0
-197 42 0
197 72 -65 88 33 20 22 -17 90 -68 -42 0
-198 -71 0
-198 -53 0
-198 -37 0
-198 20 0
-198 59 0
-198 -62 0
-198 -79 0
-198 -23 0
-198 -7 0
-198 60 0
198 71 53 37 -20 -59 62 79 23 7 -60 0
-199 74 0
-199 6 0
-199 -67 0
-199 -33 0
-199 -55 0
-199 -79 0
-199 66 0
-199 82 0
-199 -34 0
-199 -50 0
199 -74 -6 67 33 55 79 -66 -82 34 50 0
-200 100 0
-200 -20 0
-200 19 0
-200 92 0
-200 -39 0
-200 -63 0
-200 75 0
-200 90 0
-200 -8 0
-200 -71 0
200 -100 20 -19 -92 39 63 -75 -90 8 71 0
191 192 193 194 195 196 197 198 199 200 0
